<number of tasks>
50

<cycle time>
1000

<order strength>
0.595


<task times>
1 144
2 83
3 31
4 187
5 154
6 59
7 37
8 127
9 66
10 142
11 168
12 184
13 149
14 224
15 121
16 200
17 138
18 52
19 300
20 78
21 213
22 199
23 131
24 270
25 77
26 113
27 74
28 126
29 145
30 117
31 142
32 52
33 62
34 232
35 323
36 63
37 194
38 29
39 241
40 83
41 198
42 76
43 80
44 398
45 135
46 157
47 127
48 47
49 132
50 30

<precedence relations>
1,39
2,5
2,6
3,5
3,6
4,5
4,6
5,22
6,7
6,8
6,9
6,10
7,38
8,39
9,11
9,12
9,13
9,14
10,11
10,12
10,13
10,14
11,22
12,22
13,15
13,16
13,17
14,15
14,16
14,17
15,38
16,18
16,19
16,20
16,21
17,18
17,19
17,20
17,21
18,22
19,38
20,39
21,22
21,23
21,24
21,25
21,26
21,27
22,28
22,29
22,30
22,31
22,32
22,33
22,34
23,38
24,38
25,34
25,37
26,34
26,37
27,34
27,37
28,35
28,37
29,35
29,36
30,35
31,35
31,37
32,38
33,37
33,39
34,35
34,36
34,40
35,38
36,39
37,40
37,41
38,42
38,43
38,44
38,45
39,46
39,47
39,48
39,49
39,50

<end>
